27722 11041 9432 9284 9625 9530 9669 9745 9807 10068 10030 10006 10068 10006 10047 10047 10216 10345 10345 10345 10345 10345 10345 10345 10345 10345 10345 10345 10345 10345 10345 10345 10345 10345 10345 10345 10345 10345 10345 10345 10345 10345 10345 10345 10345 10345 10345 10345 10345 10345 10345 10345 10345 10345 10345 10345 10345 10345 10345 10345 10345 10345 10345 10345 10345 10345 10345 10345 10345 10345 10345 10345 10345 10345 10345 10345 10345 10345 10345 10345 10345 10345 10345 10345 10345 10345 10345 10345 10345 10345 10345 10345 10345 10345 10345 10345 10345 10345 10345 10345 10345 10345 10345 10345 10345 10345 10345 10345 10345 10345 10345 10345 10345 10345 10345 10345 10345 10345 10345 10345 10345 10345 10345 10345 10345 10345 10345 10345 10345 10345 10345 10345 10345 10345 10345 10345 10345 10345 10345 10345 10345 10345 10345 10345 10345 10345 10345 10345 10345 10345 10345 10345 10345 10345 10345 10345 10345 10345 10345 10345 10345 10345 10345 10345 10345 10345 10345 10345 10345 10345 10345 10345 10345 10345 10345 10345 10345 10345 10345 10345 10345 10345 10345 10345 10345 10345 10345 10345 10345 10345 10345 10345 10345 10345 10345 10345 10345 10345 10345 10345 10345 10345 10345 10345 10345 10345 10345 10345 10345 10345 10345 10345 10345 10345 10345 10345 10345 10345 10345 10345 10345 10345 10345 10345 10345 10345 10345 10345 10345 10345 10345 10345 10345 10345 10345 10345 10345 10345 10345 10345 10345 10345 10345 10345 10345 10345 10345 10345 10345 10345 10345 10345 10345 10345 10345 10345 10345 10345 10345 10345 10345 10345 10345 10345 10345 10345 10345 10345 10345 10345 10345 10345 10345 10345 10345 10345 10345 10345 10345 10345 10345 10345 10345 10345 10345 10345 10345 10345 10345 10345 10345 10345 10345 10345 10345 10345 10345 10345 10345 10345 10345 10345 10345 10345 10345 10345 10345 10345 10345 10345 10345 10345 10345 10345 10345 10345 10345 10345 10345 10345 10345 10345 10345 10345 10345 10345 10345 10345 10345 10345 10345 10345 10345 10345 10345 10345 10345 10345 10345 10345 10345 10345 10345 10345 10345 10345 10345 10345 10345 10345 10345 10345 10345 10345 10345 10345 10345 10345 10345 10345 10345 10345 10345 10345 10345 10345 10345 10345 10345 10345 10345 10345 10345 10345 10345 10345 10345 10345 10345 10345 10345 10345 10345 10345 10345 10345 10345 10345 10345 10345 10345 10345 10345 10345 10345 10345 10345 10345 10345 10345 10345 10345 10345 10345 10345 10345 10345 10345 10345 10345 10345 10345 10345 10345 10345 10345 10345 10345 10345 10345 10345 10345 10345 10345 10345 10345 10345 10345 10345 10345 10345 10345 10345 10345 10345 10345 10345 10345 10345 10345 10345 10345 10345 10345 10345 10345 10345 10345 10345 10345 10345 10345 10345 10345 10345 10345 10345 10345 10345 10345 10345 10345 10345 10345 10345 10345 10345 10345 10345 10345 10345 10345 10345 10345 10345 10345 10345 10345 10345 10345 10345 10345 10345 10345 10345 10345 10345 10345 10345 10345 10345 10345 10345 10345 10345 10345 10345 10345 10345 10345 10345 10345 10345 10345 10345 10345 10345 10345 10345 10345 10345 10345 10345 10345 10345 10345 10345 10345 10345 10345 10345 10345 10345 10345 10345 10345 10345 10345 10345 10345 10345 10345 10345 10345 10345 10345 10345 10345 10345 10345 10345 10345 10345 10345 10345 10345 10345 10345 10345 10345 10345 10345 10345 10345 10345 10345 10345 10345 10345 10345 10345 10345 10345 10345 10345 10345 10345 10345 10345 10345 10345 10345 10345 10345 10345 10345 10345 10345 10345 10345 10345 10345 10345 10345 10345 10345 10345 10345 10345 10345 10345 10345 10345 10345 10345 10345 10345 10345 10345 10345 10345 10345 10345 10345 10345 10345 10345 10345 10345 10345 10345 10345 10345 10345 10345 10345 10345 10345 10345 10345 10345 10345 10345 10345 10345 10345 10345 10345 10345 10345 10345 10345 10345 10345 10345 10345 10345 10345 10345 10345 10345 10345 10345 10345 10345 10345 10345 10345 10345 10345 10345 10345 10345 10345 10345 10345 10345 10345 10345 10345 10345 10345 10345 10345 10345 10345 10345 10345 10345 10345 10345 10345 10345 10345 10345 10345 10345 10345 10345 10345 10345 10345 10345 10345 10345 10345 10345 10345 10345 10345 10345 10345 10345 10345 10345 10345 10345 10345 10345 10345 10345 10345 10345 10345 10345 10345 10345 10345 10345 10345 10345 10345 10345 10345 10345 10345 10345 10345 10345 10345 10345 10345 10345 10345 10345 10345 10345 10345 10345 10345 10345 10345 10345 10345 10345 10345 10345 10345 10345 10345 10345 10345 10345 10345 10345 10345 10345 10345 10345 10345 10345 10345 10345 10345 10345 10345 10345 10345 10345 10345 10345 10345 10345 10345 10345 10345 10345 10345 10345 10345 10345 10345 10345 10345 10345 10345 10345 10345 10345 10345 10345 10345 10345 10345 10345 10345 10345 10345 10345 10345 10345 10345 10345 10345 10345 10345 10345 10345 10345 10345 10345 10345 10345 10345 10345 10345 10345 10345 10345 10345 10345 10345 10345 10345 10345 10345 10345 10345 10345 10345 10345 10345 10345 10345 10345 10345 10345 10345 10345 10345 10345 10345 10345 10345 10345 10345 10345 10345 10345 10345 10345 10345 10345 10345 10345 10345 10345 10345 10345 10345 10345 10345 10345 10345 10345 10345 10345 10345 10345 10345 10345 10345 10345 10345 10345 10345 10345 10345 10345 10345 10345 10345 10345 10345 10345 10345 10345 10345 10345 10345 10345 10345 10345 10345 10345 10345 10345 10345 10345 10345 10345 10345 10345 10345 10345 10345 10345 10345 10345 10345 10345 10345 10345 10345 10345 10345 10345 10345 10345 10345 10345 10345 10345 10345 10345 10345 10345 10345 10345 10345 10345 10345 10345 10345 10345 10345 10345 10345 10345 10345 10345 10345 10345 10345 10345 10345 10345 10345 10345 10345 10345 10345 10345 10345 10345 10345 10345 10345 10345 10345 10345 10345 10345 10345 10345 10345 10345 10345 10345 10345 10345 10345 10345 10345 10345 10345 10345 10345 10345 10345 10345 10345 10345 10345 10345 10345 10345 10345 10345 10345 10345 10345 10345 10345 10345 10345 10345 10345 10345 10345 10345 10345 10345 10345 10345 10345 10345 10345 10345 10345 